;; produced by cvc5.drv ;;
(set-logic ALL)
(set-info :smt-lib-version 2.6)
;;; generated by SMT-LIB2 driver
;;; SMT-LIB2 driver: bit-vectors, common part
;;; SMT-LIB2: integer arithmetic
(define-fun __cdiv ((x Int) (y Int)) Int (ite (>= x 0) (div x y) (- (div (- x) y))))
(define-fun __cmod ((x Int) (y Int)) Int (ite (>= x 0) (mod x y) (- (mod (- x) y))))
(declare-sort us_private 0)

(declare-const us_null_ext__ us_private)

;; "lsr"
(declare-fun lsr ((_ BitVec 64)
  Int) (_ BitVec 64))

;; "pow2"
(declare-fun pow2 (Int) Int)

(declare-const two_power_size_minus_one Int)

;; "two_power_size_minus_one_val"
(assert (= two_power_size_minus_one (pow2 (- 64 1))))

;; "lsr_bv_is_lsr"
(assert
  (forall ((x (_ BitVec 64)) (n (_ BitVec 64)))
    (= (bvlshr x n) (lsr x (bv2nat n)))))

;; "min"
(define-fun min ((x Int) (y Int)) Int
  (ite (<= x y) x y))

;; "max"
(define-fun max ((x Int) (y Int)) Int
  (ite (<= x y) y x))

;; "Min_r"
(assert (forall ((x Int) (y Int)) (=> (<= y x) (= (min x y) y))))

;; "Max_l"
(assert (forall ((x Int) (y Int)) (=> (<= y x) (= (max x y) x))))

;; "Min_comm"
(assert (forall ((x Int) (y Int)) (= (min x y) (min y x))))

;; "Max_comm"
(assert (forall ((x Int) (y Int)) (= (max x y) (max y x))))

;; "Min_assoc"
(assert
  (forall ((x Int) (y Int) (z Int)) (= (min (min x y) z) (min x (min y z)))))

;; "Max_assoc"
(assert
  (forall ((x Int) (y Int) (z Int)) (= (max (max x y) z) (max x (max y z)))))

(declare-sort integer 0)

;; "integer'int"
(declare-fun integerqtint (integer) Int)

;; "integer'axiom"
(assert
  (forall ((i integer))
    (and
      (<= (- 2147483648) (integerqtint i))
      (<= (integerqtint i) 2147483647))))

;; "in_range"
(define-fun in_range ((x Int)) Bool
  (and (<= (- 2147483648) x) (<= x 2147483647)))

;; "in_range"
(define-fun in_range1 ((x Int)) Bool
  (and (<= 0 x) (<= x 2147483647)))

;; "to_rep"
(define-fun to_rep ((x integer)) Int
  (integerqtint x))

;; "of_rep"
(declare-fun of_rep (Int) integer)

;; "inversion_axiom"
(assert
  (forall ((x integer)) (! (= (of_rep (to_rep x)) x) :pattern ((to_rep x)) )))

;; "range_axiom"
(assert
  (forall ((x integer)) (! (in_range (to_rep x)) :pattern ((to_rep x)) )))

;; "coerce_axiom"
(assert
  (forall ((x Int))
    (! (=> (in_range x) (= (to_rep (of_rep x)) x)) :pattern ((to_rep
                                                               (of_rep x))) )))

;; "lsr"
(declare-fun lsr1 ((_ BitVec 8)
  Int) (_ BitVec 8))

(declare-const two_power_size_minus_one1 Int)

;; "two_power_size_minus_one_val"
(assert (= two_power_size_minus_one1 (pow2 (- 8 1))))

;; "lsr_bv_is_lsr"
(assert
  (forall ((x (_ BitVec 8)) (n (_ BitVec 8)))
    (= (bvlshr x n) (lsr1 x (bv2nat n)))))

(declare-sort unsigned_8 0)

(declare-const attr__ATTRIBUTE_MODULUS (_ BitVec 8))

;; "in_range"
(define-fun in_range2 ((x Int)) Bool
  (and (<= 0 x) (<= x 2147483646)))

;; "to_rep"
(declare-fun to_rep1 (unsigned_8) (_ BitVec 8))

;; "of_rep"
(declare-fun of_rep1 ((_ BitVec 8)) unsigned_8)

;; "inversion_axiom"
(assert
  (forall ((x unsigned_8))
    (! (= (of_rep1 (to_rep1 x)) x) :pattern ((to_rep1 x)) )))

;; "range_axiom"
(assert true)

;; "coerce_axiom"
(assert
  (forall ((x (_ BitVec 8)))
    (! (= (to_rep1 (of_rep1 x)) x) :pattern ((to_rep1 (of_rep1 x))) )))

(declare-datatypes ((t 0))
  (((tqtmk (rec__first integer)(rec__last integer)))))

;; "dynamic_property"
(define-fun dynamic_property ((range_first Int) (range_last Int) (low Int) (high Int)) Bool
  (and
    (in_range low)
    (and
      (in_range high)
      (=> (<= low high) (and (in_range2 low) (in_range2 high))))))

(declare-datatypes ((us_t 0))
  (((us_tqtmk (elts (Array Int unsigned_8))(rt t)))))

;; "to_array"
(define-fun to_array ((a us_t)) (Array Int unsigned_8)
  (elts a))

;; "first"
(define-fun first ((a us_t)) Int
  (to_rep (rec__first (rt a))))

;; "last"
(define-fun last ((a us_t)) Int
  (to_rep (rec__last (rt a))))

;; "length"
(define-fun length ((a us_t)) Int
  (ite (<= (first a) (last a)) (+ (- (last a) (first a)) 1) 0))

(declare-const value__size Int)

(declare-const object__size Int)

(declare-const component__size Int)

(declare-const alignment Int)

;; "value__size_axiom"
(assert (<= 0 value__size))

;; "object__size_axiom"
(assert (<= 0 object__size))

;; "component__size_axiom"
(assert (<= 0 component__size))

;; "alignment_axiom"
(assert (<= 0 alignment))

;; "nth8_stream"
(declare-fun nth8_stream (us_t
  Int) Bool)

;; "nth"
(define-fun nth ((param__x (_ BitVec 8)) (param__pos Int)) Bool
  (= (bvand (ite (< param__pos 8)
              (bvlshr param__x ((_ int2bv 8) param__pos))
              #x00) #x01) #x01))

;; "nth"
(define-fun nth1 ((param__x (_ BitVec 64)) (param__pos Int)) Bool
  (= (bvand (bvlshr param__x ((_ int2bv 64) param__pos)) #x0000000000000001) #x0000000000000001))

(declare-const attr__ATTRIBUTE_MODULUS1 (_ BitVec 64))

(declare-const start Int)

(declare-const length1 Int)

(declare-const addr us_t)

;; "dynamic_invariant"
(define-fun dynamic_invariant ((temp___expr_204 us_t) (temp___is_init_200 Bool) (temp___skip_constant_201 Bool) (temp___do_toplevel_202 Bool) (temp___do_typ_inv_203 Bool)) Bool
  (=>
    (not (= temp___skip_constant_201 true))
    (dynamic_property
      0
      2147483646
      (first temp___expr_204)
      (last temp___expr_204))))

;; "nth8_stream__post_axiom"
(assert true)

;; "nth8_stream__def_axiom"
(assert
  (forall ((param__stream us_t))
    (forall ((param__pos Int))
      (! (=
           (= (nth8_stream param__stream param__pos) true)
           (= (nth
                (to_rep1
                  (select (to_array param__stream) (__cdiv param__pos 8)))
                (- 7 (__cmod param__pos 8))) true)) :pattern ((nth8_stream
                                                                param__stream
                                                                param__pos)) ))))

;; Goal "def'vc"
;; File "bitwalker.ads", line 35, characters 0-0
(assert
  (not
  (=>
    (in_range1 start)
    (=>
      (in_range1 length1)
      (=>
        (dynamic_invariant addr true false true true)
        (=>
          (and
            (and
              (and (= (first addr) 0) (<= length1 64))
              (<= (+ start length1) 2147483647))
            (<= (* 8 (length addr)) 2147483647))
          (=>
            (in_range (length addr))
            (=>
              (in_range (length addr))
              (let ((o (length addr)))
                (=>
                  (in_range o)
                  (let ((o1 (* 8 o)))
                    (=>
                      (in_range o1)
                      (let ((o2 (+ start length1)))
                        (=>
                          (in_range o2)
                          (forall ((spark__branch Bool))
                            (=>
                              (= spark__branch (ite (< o1 o2) true false))
                              (=>
                                (not (= spark__branch true))
                                (forall ((retval (_ BitVec 64)))
                                  (=>
                                    (= retval #x0000000000000000)
                                    (forall ((i Int))
                                      (=>
                                        (= i 0)
                                        (=>
                                          (= (and (ite (<= 0 i) true false) 
                                          (ite (<= i (- length1 1))
                                            true
                                            false)) true)
                                          (=>
                                            (forall ((j Int))
                                              (=>
                                                (and
                                                  (<= (- length1 i) j)
                                                  (<= j (- length1 1)))
                                                (=
                                                  (= (nth8_stream
                                                       addr
                                                       (- (- (+ start 
                                                       length1) j) 1)) true)
                                                  (= (nth1 retval j) true))))
                                            (forall ((j Int))
                                              (=>
                                                (and
                                                  (<= length1 j)
                                                  (<= j 63))
                                                (not
                                                  (= (nth1 retval j) true)))))))))))))))))))))))))))

(check-sat)
(get-info :reason-unknown)
